NAME: random-36-14675
TYPE: TSP
COMMENT: size=36 seed=14675
DIMENSION: 74
EDGE_WEIGHT_TYPE: EUC_2D
NODE_COORD_SECTION
+0 725 365
-0 725 365
+1 504 789
-1 770 236
+2 729 323
-2 331 941
+3 582 321
-3 977 394
+4 422 611
-4 978 40
+5 3 609
-5 554 837
+6 201 171
-6 22 38
+7 512 142
-7 849 855
+8 3 913
-8 856 323
+9 724 875
-9 504 608
+10 350 154
-10 840 215
+11 408 173
-11 857 424
+12 656 587
-12 219 805
+13 517 202
-13 916 129
+14 767 369
-14 476 989
+15 425 809
-15 903 593
+16 409 672
-16 940 243
+17 424 721
-17 641 36
+18 923 505
-18 97 145
+19 749 902
-19 650 181
+20 869 617
-20 471 534
+21 548 639
-21 687 385
+22 876 917
-22 866 760
+23 178 146
-23 522 192
+24 891 672
-24 706 735
+25 227 173
-25 467 348
+26 490 967
-26 50 180
+27 29 395
-27 782 218
+28 589 188
-28 282 818
+29 282 391
-29 664 742
+30 755 212
-30 482 287
+31 707 248
-31 614 310
+32 912 977
-32 498 879
+33 68 394
-33 58 392
+34 674 845
-34 373 199
+35 877 985
-35 983 897
+36 590 544
-36 593 342
PRECEDENCE_SECTION
+0 -0
+1 -1
+2 -2
+3 -3
+4 -4
+5 -5
+6 -6
+7 -7
+8 -8
+9 -9
+10 -10
+11 -11
+12 -12
+13 -13
+14 -14
+15 -15
+16 -16
+17 -17
+18 -18
+19 -19
+20 -20
+21 -21
+22 -22
+23 -23
+24 -24
+25 -25
+26 -26
+27 -27
+28 -28
+29 -29
+30 -30
+31 -31
+32 -32
+33 -33
+34 -34
+35 -35
+36 -36
EOF
